150 1138
1 5 1
1 17 -1
1 35 1
1 38 1
1 41 1
1 44 -1
1 71 1
1 77 -1
1 79 -1
1 81 -1
1 82 1
1 85 1
1 91 1
1 107 1
1 118 1
1 124 -1
1 131 -1
1 138 -1
2 9 1
2 21 -1
2 22 1
2 24 -1
2 27 -1
2 33 1
2 67 -1
2 84 1
2 87 1
2 89 -1
2 90 -1
2 95 1
2 102 -1
2 104 1
2 135 -1
2 141 -1
2 146 -1
2 149 1
3 5 -1
3 6 -1
3 27 -1
3 44 1
3 45 1
3 50 -1
3 52 1
3 58 -1
3 71 -1
3 82 1
3 93 1
3 95 -1
3 111 -1
3 128 1
3 130 -1
3 136 -1
3 147 1
4 11 -1
4 12 -1
4 34 1
4 42 1
4 44 -1
4 55 1
4 61 1
4 62 -1
4 80 1
4 103 1
4 106 -1
4 109 1
4 118 1
4 139 -1
4 143 1
4 150 1
5 11 -1
5 32 1
5 40 1
5 46 1
5 52 -1
5 63 1
5 74 -1
5 79 -1
5 88 1
5 89 1
5 99 -1
5 103 -1
5 116 -1
5 121 1
5 122 -1
5 129 -1
5 146 1
5 148 1
5 150 -1
6 25 1
6 34 -1
6 65 1
6 67 1
6 78 -1
6 86 -1
6 93 -1
6 94 -1
6 99 -1
6 107 1
6 110 1
6 112 1
6 115 1
6 122 1
6 123 -1
6 125 -1
6 140 1
7 51 1
7 65 1
7 83 1
7 92 -1
7 109 1
7 115 1
7 123 1
7 124 -1
7 133 -1
7 136 -1
7 141 1
8 9 -1
8 10 -1
8 39 -1
8 54 -1
8 55 -1
8 67 -1
8 71 1
8 85 1
8 93 -1
8 116 -1
8 144 -1
8 148 1
9 11 1
9 12 -1
9 40 1
9 52 -1
9 56 1
9 71 -1
9 78 1
9 80 -1
9 106 -1
9 115 1
9 137 -1
10 23 1
10 40 -1
10 46 1
10 47 -1
10 51 -1
10 61 1
10 68 -1
10 86 1
10 87 1
10 101 1
10 111 -1
10 129 -1
10 140 -1
11 15 -1
11 22 -1
11 28 1
11 38 -1
11 43 -1
11 49 -1
11 53 -1
11 55 -1
11 97 1
11 120 1
11 124 1
11 127 1
11 136 -1
11 149 -1
12 15 1
12 24 1
12 28 1
12 41 1
12 50 1
12 51 1
12 57 -1
12 83 -1
12 85 -1
12 91 -1
12 97 1
12 101 1
12 102 1
12 105 1
12 112 -1
12 113 -1
12 116 -1
12 136 -1
13 36 -1
13 52 -1
13 57 1
13 61 -1
13 65 1
13 69 -1
13 76 1
13 85 1
13 107 1
13 108 1
13 114 1
13 117 1
13 136 1
14 16 1
14 20 -1
14 44 -1
14 46 -1
14 48 1
14 55 -1
14 59 -1
14 67 1
14 69 -1
14 77 1
14 91 1
14 104 1
14 130 -1
14 138 -1
15 20 1
15 32 1
15 65 -1
15 70 1
15 86 1
15 87 1
15 93 1
15 108 1
15 120 1
15 129 -1
15 130 1
16 17 1
16 31 1
16 41 -1
16 44 1
16 65 1
16 76 -1
16 106 1
16 135 1
16 148 1
17 23 -1
17 68 1
17 89 -1
17 95 1
17 103 -1
17 110 1
17 114 -1
17 124 -1
17 143 1
18 24 -1
18 29 -1
18 32 -1
18 39 1
18 45 1
18 55 1
18 66 -1
18 72 1
18 112 1
18 114 -1
18 122 1
18 131 1
18 133 -1
18 144 -1
18 146 1
18 147 1
19 24 -1
19 29 1
19 33 -1
19 34 -1
19 44 -1
19 61 -1
19 64 1
19 71 1
19 78 1
19 96 -1
19 99 1
19 109 1
19 113 1
19 121 1
19 126 1
19 132 1
19 133 -1
19 150 -1
20 40 -1
20 41 -1
20 66 1
20 69 -1
20 77 -1
20 100 -1
20 112 -1
20 119 1
20 131 1
20 135 -1
20 139 -1
21 27 -1
21 43 -1
21 50 1
21 62 -1
21 65 1
21 70 -1
21 77 1
21 82 -1
21 86 -1
21 105 -1
21 122 -1
21 123 1
21 132 1
21 136 -1
21 140 -1
22 23 -1
22 37 -1
22 47 1
22 59 1
22 63 -1
22 85 1
22 93 -1
22 95 -1
22 96 1
22 99 1
22 113 -1
22 120 1
22 127 -1
22 133 1
23 39 -1
23 47 1
23 93 1
23 100 1
23 101 1
23 109 1
23 111 1
23 123 1
23 133 -1
23 136 -1
24 35 1
24 37 1
24 45 -1
24 50 -1
24 59 -1
24 61 -1
24 70 1
24 75 -1
24 105 1
24 112 1
24 116 -1
24 123 -1
24 143 1
25 30 1
25 43 -1
25 45 1
25 64 -1
25 71 1
25 76 1
25 79 -1
25 80 1
25 107 -1
25 110 -1
25 115 1
25 117 1
25 129 1
25 140 -1
25 150 -1
26 50 1
26 53 -1
26 68 1
26 93 1
26 100 -1
26 122 1
26 127 1
26 130 -1
26 144 1
26 147 1
27 44 1
27 46 -1
27 59 -1
27 74 -1
27 75 -1
27 97 -1
27 104 1
27 112 -1
27 122 -1
27 123 1
27 128 -1
27 134 1
28 31 -1
28 38 1
28 69 -1
28 72 1
28 74 -1
28 82 1
28 98 1
28 123 1
28 130 -1
28 137 -1
28 140 1
28 148 1
29 40 1
29 41 -1
29 46 -1
29 47 1
29 66 -1
29 86 1
29 90 -1
29 103 1
29 106 -1
29 129 1
29 148 1
30 36 -1
30 53 -1
30 57 -1
30 63 1
30 77 -1
30 94 1
30 102 -1
30 104 -1
30 115 -1
30 121 1
30 132 -1
30 139 -1
30 143 1
30 144 -1
31 51 1
31 55 -1
31 58 1
31 67 1
31 71 -1
31 89 1
31 104 -1
31 113 -1
31 140 1
31 141 1
31 148 1
32 39 1
32 46 1
32 69 1
32 94 1
32 99 -1
32 109 1
33 37 -1
33 52 -1
33 59 1
33 65 1
33 72 1
33 85 -1
33 135 1
34 36 -1
34 85 -1
34 100 1
34 101 1
34 104 -1
34 115 -1
34 134 1
34 135 -1
34 137 -1
34 138 1
34 150 -1
35 43 -1
35 46 -1
35 52 -1
35 65 -1
35 70 -1
35 94 1
35 100 1
35 105 1
35 108 1
35 111 1
35 116 -1
35 120 -1
35 134 1
35 138 1
35 150 -1
36 67 -1
36 91 1
36 97 -1
36 110 -1
36 111 1
36 122 1
36 131 1
36 139 1
37 40 -1
37 47 1
37 62 1
37 81 1
37 82 -1
37 87 -1
37 116 -1
37 118 1
37 128 1
37 137 1
38 40 -1
38 44 -1
38 59 1
38 65 1
38 67 -1
38 76 1
38 101 -1
38 112 -1
38 113 1
38 115 -1
38 144 -1
39 42 1
39 63 -1
39 70 1
39 92 -1
39 106 1
39 109 1
39 127 1
39 128 1
39 132 -1
39 139 -1
39 140 -1
39 144 1
39 146 -1
40 57 1
40 74 -1
40 81 -1
40 82 -1
40 89 -1
40 104 -1
40 117 1
40 121 1
40 122 -1
40 143 -1
40 145 -1
41 45 1
41 63 -1
41 79 -1
41 81 1
41 97 -1
41 104 -1
41 107 1
41 110 1
41 112 -1
41 126 -1
41 138 1
41 147 1
42 44 -1
42 47 1
42 48 -1
42 52 -1
42 53 -1
42 54 1
42 56 1
42 89 -1
42 92 -1
42 104 1
42 120 1
42 135 1
42 137 -1
42 139 -1
42 141 -1
43 44 1
43 53 -1
43 76 -1
43 95 -1
43 100 1
43 108 1
43 135 1
43 138 -1
43 139 1
44 53 -1
44 65 1
44 71 1
44 98 -1
45 46 1
45 48 1
45 56 1
45 58 -1
45 70 1
45 79 1
45 84 1
45 95 -1
45 106 -1
45 115 1
45 116 -1
45 124 -1
45 128 1
45 150 -1
46 70 -1
46 74 -1
46 82 1
46 92 -1
46 109 -1
46 113 1
46 142 -1
46 143 -1
47 71 1
47 74 1
47 80 1
47 89 -1
47 94 -1
47 99 1
47 109 -1
47 114 1
47 121 -1
47 122 -1
47 129 1
47 137 1
47 146 -1
47 150 1
48 56 -1
48 80 -1
48 85 1
48 93 -1
48 97 -1
48 111 -1
48 113 -1
48 116 -1
48 123 -1
48 124 1
48 128 1
48 144 1
49 55 1
49 64 1
49 70 -1
49 73 1
49 80 1
49 90 1
49 98 1
49 111 -1
49 135 -1
49 149 1
49 150 -1
50 59 1
50 72 -1
50 76 -1
50 77 -1
50 97 1
50 112 1
50 131 1
50 133 1
50 134 1
50 138 1
50 139 -1
50 140 -1
50 149 1
51 55 -1
51 64 -1
51 67 -1
51 89 -1
51 94 -1
51 100 1
51 120 -1
52 67 -1
52 89 -1
52 91 -1
52 106 1
52 113 1
52 114 1
52 121 -1
52 124 -1
52 128 1
53 61 1
53 70 -1
53 77 1
53 86 1
53 115 1
53 127 1
53 135 -1
53 144 1
54 65 -1
54 70 -1
54 78 -1
54 111 1
54 133 -1
55 57 1
55 105 1
55 129 1
55 132 -1
55 135 -1
55 143 1
56 57 -1
56 58 -1
56 63 -1
56 76 -1
56 78 -1
56 79 1
56 83 1
56 90 1
56 93 -1
56 97 -1
56 111 -1
56 121 1
56 142 -1
56 150 1
57 68 -1
57 72 1
57 93 1
57 100 1
57 102 -1
57 105 -1
57 106 -1
57 111 1
57 126 -1
57 127 1
57 136 1
57 137 -1
57 140 -1
57 141 1
58 68 1
58 71 -1
58 83 -1
58 86 -1
58 116 1
58 128 -1
58 130 1
58 136 -1
58 143 -1
59 81 -1
59 83 1
59 85 1
59 98 -1
59 122 -1
59 124 1
59 131 -1
60 66 1
60 68 1
60 83 -1
60 84 -1
60 86 -1
60 89 1
60 92 1
60 100 1
60 110 1
60 115 -1
60 118 1
60 123 -1
60 128 -1
60 148 1
61 66 -1
61 92 -1
61 98 1
61 111 1
61 117 1
61 124 1
61 125 -1
61 130 -1
62 73 -1
62 85 -1
62 91 -1
62 100 1
62 104 1
62 122 1
62 127 -1
62 130 -1
62 138 1
62 140 -1
62 142 -1
62 145 -1
62 147 1
62 150 -1
63 66 -1
63 90 1
63 95 -1
63 102 1
63 105 -1
63 107 -1
63 108 -1
63 114 1
63 115 1
63 142 1
63 149 1
63 150 -1
64 91 -1
64 113 -1
64 145 -1
64 146 1
64 149 -1
65 74 1
65 89 1
65 124 1
65 125 -1
65 126 -1
65 143 1
66 69 -1
66 74 -1
66 86 -1
66 87 -1
66 129 -1
66 137 -1
67 88 1
67 89 -1
67 93 1
67 108 -1
67 114 1
67 123 1
67 124 -1
67 131 1
67 133 -1
67 137 1
67 148 -1
67 150 1
68 73 1
68 81 1
68 98 -1
68 111 1
68 120 1
68 133 1
68 134 1
69 70 1
69 82 1
69 89 1
69 93 1
69 100 1
69 103 1
69 110 -1
69 111 -1
69 113 1
69 115 1
69 119 -1
69 130 -1
69 139 -1
69 144 1
69 145 -1
70 92 -1
70 99 -1
70 103 -1
70 113 -1
70 114 -1
70 133 -1
70 141 -1
70 149 -1
71 94 1
71 107 -1
71 110 -1
71 111 -1
71 112 1
71 114 1
71 118 1
72 85 -1
72 94 1
72 99 1
72 114 -1
72 116 -1
72 132 1
72 136 1
72 137 1
73 74 -1
73 89 1
73 90 -1
73 101 -1
73 105 1
73 110 -1
73 112 1
73 117 -1
73 120 -1
73 121 -1
73 130 -1
73 150 -1
74 82 -1
74 101 1
74 104 -1
74 116 1
74 119 -1
74 133 -1
74 135 -1
74 138 -1
74 149 -1
75 81 1
75 84 -1
75 86 1
75 93 -1
75 114 1
75 115 -1
75 118 -1
75 127 1
75 129 1
75 130 1
75 146 -1
76 77 1
76 88 -1
76 99 1
76 100 -1
76 115 1
76 121 -1
76 127 1
77 83 1
77 88 1
77 101 -1
77 110 -1
77 113 -1
77 121 -1
77 135 1
77 137 -1
77 144 -1
77 145 1
78 85 -1
78 99 -1
78 101 -1
78 110 -1
78 120 1
78 121 -1
78 140 1
79 84 1
79 85 1
79 87 -1
79 95 -1
79 114 1
79 121 1
79 127 1
79 137 1
79 144 -1
80 83 -1
80 94 1
80 95 -1
80 110 -1
80 111 -1
81 88 1
81 95 -1
81 97 1
81 98 -1
81 99 1
81 113 -1
81 123 -1
81 125 -1
81 137 -1
81 138 -1
81 144 1
82 83 1
82 90 1
82 99 1
82 104 1
82 111 1
82 120 -1
82 124 -1
82 133 -1
82 134 -1
82 146 1
83 92 -1
83 95 1
83 116 -1
83 122 1
83 124 -1
83 130 1
84 108 1
84 114 1
84 145 -1
84 147 -1
84 150 1
85 86 -1
85 105 1
85 116 -1
85 117 -1
85 122 1
85 124 1
85 150 1
86 93 -1
86 105 -1
86 106 1
86 115 -1
86 128 -1
86 130 -1
86 132 -1
86 136 -1
86 145 -1
87 115 -1
87 121 -1
87 123 1
87 131 -1
87 135 1
88 97 -1
88 112 -1
88 118 -1
88 145 1
88 150 1
89 90 -1
89 91 1
89 99 1
89 104 1
89 110 1
89 111 1
89 112 1
89 113 1
89 114 -1
89 117 1
89 129 -1
90 95 -1
90 107 -1
90 119 -1
90 130 1
90 138 1
90 140 1
91 118 -1
91 121 -1
91 125 1
91 126 1
91 130 -1
91 135 -1
91 145 -1
92 99 -1
92 100 -1
92 124 -1
92 132 -1
93 100 1
93 111 -1
93 133 1
93 139 1
94 117 1
94 131 -1
94 132 1
94 137 -1
94 140 -1
94 144 1
95 96 1
95 106 1
95 109 1
95 110 1
95 122 -1
95 124 1
95 136 -1
95 143 -1
95 150 1
96 110 -1
96 113 1
96 124 1
96 127 -1
96 131 -1
96 133 1
96 139 1
96 140 -1
96 149 1
97 104 1
97 105 1
97 108 1
97 111 -1
98 102 1
98 133 -1
98 141 -1
98 150 -1
99 108 1
99 109 1
99 116 1
99 121 1
99 144 1
100 108 -1
100 114 1
100 125 1
100 132 -1
100 136 -1
101 102 1
101 105 1
101 126 -1
101 131 1
101 141 -1
102 114 -1
102 121 -1
102 126 -1
102 130 1
102 142 -1
103 104 1
103 106 1
103 107 -1
103 108 -1
103 116 1
103 133 -1
104 113 1
104 137 -1
104 138 1
105 109 -1
105 113 -1
105 116 1
105 128 -1
105 134 -1
105 136 1
105 138 1
105 142 -1
105 149 1
106 125 -1
106 126 1
106 131 1
106 145 -1
107 128 -1
107 131 -1
107 145 -1
108 112 -1
108 124 -1
108 126 1
108 143 -1
109 130 -1
109 147 -1
110 119 -1
110 127 1
110 129 -1
110 135 1
110 138 1
110 142 -1
110 145 -1
110 150 -1
111 126 -1
111 147 -1
112 113 -1
112 137 -1
112 138 -1
113 122 1
113 128 1
113 133 -1
113 150 -1
114 116 -1
114 119 1
114 144 -1
114 145 1
114 148 -1
116 135 1
116 147 -1
117 124 1
117 129 1
118 119 1
118 124 1
118 128 -1
118 133 -1
118 134 -1
119 123 1
119 128 -1
119 141 1
120 122 -1
120 138 1
120 142 -1
121 122 -1
121 126 -1
121 134 1
121 142 -1
122 139 -1
123 144 1
124 129 -1
124 138 1
124 143 1
124 147 -1
125 145 1
126 136 -1
126 150 -1
128 140 1
129 142 -1
129 150 1
130 138 -1
130 147 1
130 150 -1
131 134 -1
131 147 1
132 137 -1
133 145 -1
134 142 1
135 145 -1
135 147 -1
136 138 1
137 139 1
139 140 -1
139 143 -1
147 148 -1
